(set-logic QF_NRA)
(declare-fun y1 () Real)
(declare-fun y12 () Real)
(declare-fun y23 () Real)
(declare-fun y34 () Real)
(declare-fun y41 () Real)
(assert (<= 2.46350884418 y1))
(assert (<= y1 2.52))
(assert (<= 2.0 y12))
(assert (<= y12 2.46350884418))
(assert (<= 2.0 y23))
(assert (<= y23 2.46350884418))
(assert (<= 2.0 y34))
(assert (<= y34 2.46350884418))
(assert (<= 2.0 y41))
(assert (<= y41 2.46350884418))
(assert (not (< (+ (* 2.0 (* 3.14159265 0.065103)) (+ (* (+ (- 0.029778) (+ 0.072591 (+ 0.055356 0.072591))) y1) (+ (* 2.0 (* (+ (- 0.027449) 0.027449) y12)) (+ (* 2.0 (* (+ 0.027449 (- 0.027449)) y23)) (+ (* 2.0 (* (+ (- 0.027449) 0.027449) y34)) (+ (* 2.0 (* (+ 0.027449 (- 0.027449)) y41)) (+ 0.170713 (+ (- 0.485323) (+ (- 0.039438) (- 0.485323)))))))))) 0.0)))
(check-sat)
(exit)
